benchmarks_vrp/CMT1/tsp_classic/CMT1_3.vrp
NAME: CMT1_3
TYPE: CVRP
COMMENT: 524.61 - Cluster Nr.3
DIMENSION: 12
CAPACITY: 160
EDGE_WEIGHT_TYPE: EUC_2D
NODE_COORD_TYPE: TWOD_COORDS
NODE_COORD_SECTION: 
9 49 49
12 58 48
6 38 46
3 56 37
7 32 39
5 42 57
1 42 41
8 25 32
10 37 52
2 52 41
11 62 42
4 30 40
DEPOT_SECTION: 
4
-1
DEMAND_SECTION: 
1 19
6 12
11 8
10 7
5 8
12 6
8 25
4 0
2 15
3 10
9 30
7 5
EOF
