benchmarks_vrp/CMT1/tsp_classic/CMT1_3.tour
NAME: CMT1_3 solution
TYPE: TOUR
TOUR_SECTION:
4 6 10 5 9 12 11 3 2 1 7 8 -1
-1
EOF